num_tests = 10;
num_machines = 3;
num_resources = 1;

durations = [2, 4, 3, 4, 3, 2, 1, 2, 3, 5];

machines_allowed = [{1, 2, 3}, {1, 2, 3}, {1, 2, 3}, {1, 2, 3}, {1, 2, 3}, {1, 2, 3}, {1}, {2}, {3}, {1,3}];

resources_allowed = [{2, 3, 4}];

have_resources = [false, true, true, true, false, false, false, false, false, false]